50

100 42 223
99 43 442
99 3 215
99 11 456
99 23 438
98 1 333
98 29 358
94 42 359
93 4 549
92 25 563
92 14 291
89 19 294
89 15 211
89 18 508
84 7 287
83 19 320
80 30 403
80 34 489
78 37 558
77 33 346
75 5 421
74 3 558
74 32 536
70 20 512
70 12 580
68 34 287
68 15 456
66 7 511
63 18 444
62 20 346
60 16 358
59 14 219
58 12 566
58 4 322
58 13 553
55 12 404
54 8 220
53 5 472
52 23 471
49 4 294
42 14 514
41 16 267
36 11 537
35 2 311
35 15 297
31 13 366
26 8 539
23 12 237
22 11 239
20 7 591
